Problem:    utak_3_a
Rows:       7
Columns:    9 (9 integer, 9 binary)
Non-zeros:  26
Status:     INTEGER OPTIMAL
Objective:  cost = 5 (MINimum)

   No.   Row name        Activity     Lower bound   Upper bound
------ ------------    ------------- ------------- -------------
     1 start                       1             1             = 
     2 x2                          0            -0             = 
     3 x3                          0            -0             = 
     4 x4                          0            -0             = 
     5 x5                          0            -0             = 
     6 x6                          1             1             = 
     7 cost                        5                             

   No. Column name       Activity     Lower bound   Upper bound
------ ------------    ------------- ------------- -------------
     1 x12          *              1             0             1 
     2 x13          *              0             0             1 
     3 x23          *              0             0             1 
     4 x25          *              1             0             1 
     5 x24          *              0             0             1 
     6 x34          *              0             0             1 
     7 x46          *              0             0             1 
     8 x54          *              0             0             1 
     9 x56          *              1             0             1 

Integer feasibility conditions:

KKT.PE: max.abs.err = 0.00e+00 on row 0
        max.rel.err = 0.00e+00 on row 0
        High quality

KKT.PB: max.abs.err = 0.00e+00 on row 0
        max.rel.err = 0.00e+00 on row 0
        High quality

End of output
